; benchmark generated from python API
(set-info :status unknown)
(declare-datatypes ((RealState 0)) (((RMk1 (rval1 Real)) (RMk2 (rval2 Real)))))
 (assert
 (forall ((|v17:0| Real) )(forall ((|v16:1| Real) )(forall ((|v15:2| Real) )(forall ((|v14:3| Real) )(forall ((|v13:4| Real) )(forall ((|v12:5| Real) )(exists ((|v11:6_st| RealState) (val!7746 Real) )(exists ((|v10:7_st| RealState) (val!7747 Real) )(exists ((|v9:8_st| RealState) (val!7748 Real) )(exists ((|v8:9_st| RealState) (val!7749 Real) )(exists ((|v7:10_st| RealState) (val!7750 Real) )(exists ((|v6:11_st| RealState) (val!7751 Real) )(forall ((|v5:12| Real) )(forall ((|v4:13| Real) )(forall ((|v3:14| Real) )(forall ((|v2:15| Real) )(forall ((|v1:16| Real) )(forall ((|v0:17| Real) )(let ((?x2073 (- 13.0)))
 (let ((?x2108 (+ (+ (* (- 8.0) (rval2 |v8:9_st|)) (* (- 15.0) |v1:16|)) (* (- 5.0) |v13:4|))))
 (let ((?x1283 (- 8.0)))
 (let ((?x2604 (* ?x1283 |v5:12|)))
 (let ((?x2777 (+ (+ (+ (* (- 15.0) |v0:17|) (* 7.0 |v0:17|)) (* 10.0 |v14:3|)) ?x2604)))
 (let (($x1357 (or (<= ?x2777 14.0) (<= (+ ?x2108 (* (- 9.0) (rval2 |v11:6_st|))) ?x2073))))
 (let ((?x223 (rval2 |v11:6_st|)))
 (let ((?x83 (* 19.0 ?x223)))
 (let ((?x1108 (+ (+ (+ (* (- 6.0) |v12:5|) (* 12.0 |v12:5|)) (* (- 17.0) |v15:2|)) ?x83)))
 (let ((?x2813 (* 0.0 |v12:5|)))
 (let ((?x1219 (+ (+ (+ (* 17.0 (rval2 |v7:10_st|)) (* (- 6.0) ?x223)) (* 3.0 |v12:5|)) ?x2813)))
 (let ((?x1455 (- 20.0)))
 (let ((?x182 (rval2 |v7:10_st|)))
 (let ((?x1445 (* 12.0 ?x182)))
 (let ((?x3290 (+ (+ (* 2.0 |v0:17|) (* (- 12.0) (rval2 |v6:11_st|))) (* (- 5.0) |v16:1|))))
 (let ((?x1426 (- 6.0)))
 (let ((?x2443 (+ (+ (+ (* ?x1426 |v16:1|) (* 20.0 |v2:15|)) (* (- 1.0) |v3:14|)) (* ?x2073 |v15:2|))))
 (let ((?x2505 (* 17.0 |v1:16|)))
 (let ((?x1467 (+ (+ (* (- 12.0) |v4:13|) (* 11.0 |v5:12|)) ?x2505)))
 (let ((?x1511 (- 14.0)))
 (let ((?x2700 (* ?x1511 |v0:17|)))
 (let ((?x3280 (+ (+ (+ (* (- 12.0) |v2:15|) (* 3.0 (rval2 |v8:9_st|))) ?x2700) (* 16.0 |v12:5|))))
 (let (($x2754 (and (<= ?x3280 19.0) (<= (+ ?x1467 (* (- 1.0) (rval2 |v9:8_st|))) 3.0))))
 (let (($x200 (and (or $x2754 (and (<= ?x2443 ?x1426) (<= (+ ?x3290 ?x1445) ?x1455))) (and (or (<= ?x1219 15.0) (<= ?x1108 9.0)) $x1357))))
 (let ((?x2657 (- 9.0)))
 (let ((?x87 (+ (+ (+ (* (- 7.0) |v3:14|) (* (- 5.0) |v0:17|)) ?x2813) (* 7.0 (rval2 |v10:7_st|)))))
 (let ((?x374 (- 4.0)))
 (let ((?x1354 (* 19.0 |v4:13|)))
 (let ((?x2918 (+ (+ (+ (* (- 11.0) (rval2 |v6:11_st|)) (* (- 2.0) ?x182)) ?x1354) (* (- 10.0) (rval2 |v8:9_st|)))))
 (let ((?x1233 (* ?x1511 |v1:16|)))
 (let ((?x276 (+ (+ (+ (* 7.0 |v14:3|) (rval2 |v8:9_st|)) (* 5.0 (rval2 |v6:11_st|))) ?x1233)))
 (let ((?x2667 (- 18.0)))
 (let ((?x1735 (* 15.0 |v4:13|)))
 (let ((?x1216 (+ (+ (* 7.0 (rval2 |v8:9_st|)) (* (- 5.0) (rval2 |v10:7_st|))) (* (- 12.0) |v12:5|))))
 (let (($x1052 (and (or (<= (+ ?x1216 ?x1735) ?x2667) (<= ?x276 6.0)) (and (<= ?x2918 ?x374) (<= ?x87 ?x2657)))))
 (let ((?x1212 (- 2.0)))
 (let ((?x2214 (* 18.0 |v13:4|)))
 (let ((?x860 (+ (+ (+ (* (- 15.0) (rval2 |v8:9_st|)) (* 20.0 (rval2 |v10:7_st|))) ?x2214) (* 6.0 (rval2 |v8:9_st|)))))
 (let ((?x2034 (* ?x1455 |v2:15|)))
 (let ((?x987 (+ (+ (+ (* 3.0 |v1:16|) (* 10.0 (rval2 |v6:11_st|))) (* (- 19.0) |v4:13|)) ?x2034)))
 (let ((?x3434 (- 15.0)))
 (let ((?x3144 (* ?x1426 ?x223)))
 (let ((?x165 (+ (+ (+ (* 12.0 (rval2 |v6:11_st|)) (* 7.0 |v12:5|)) (* (- 10.0) |v12:5|)) ?x3144)))
 (let ((?x212 (+ (+ (+ (* 2.0 ?x223) (* 7.0 (rval2 |v6:11_st|))) (* (- 1.0) ?x223)) (* ?x2657 |v14:3|))))
 (let (($x1570 (and (and (<= ?x212 4.0) (<= ?x165 ?x3434)) (and (<= ?x987 ?x2657) (<= ?x860 ?x1212)))))
 (let ((?x1374 (+ (+ (* 2.0 (rval2 |v10:7_st|)) (* ?x2667 |v17:0|)) (* (- 11.0) (rval2 |v9:8_st|)))))
 (let ((?x324 (+ (+ (+ (* ?x3434 |v14:3|) (* ?x3434 ?x182)) (* 9.0 |v5:12|)) (* ?x1283 ?x182))))
 (let ((?x2010 (+ (+ (+ (* 8.0 |v0:17|) (* (- 5.0) |v4:13|)) (* ?x2073 |v14:3|)) (* (- 19.0) ?x182))))
 (let (($x1878 (and (and (<= ?x2010 2.0) (<= ?x324 9.0)) (<= (+ ?x1374 (* 17.0 (rval2 |v9:8_st|))) 12.0))))
 (let ((?x926 (- 10.0)))
 (let ((?x2840 (+ (+ (+ (* 6.0 |v14:3|) (* ?x2073 (rval2 |v9:8_st|))) (* 5.0 |v17:0|)) (* ?x926 |v13:4|))))
 (let ((?x1645 (- 19.0)))
 (let ((?x3148 (* ?x1645 |v1:16|)))
 (let ((?x1865 (+ (+ (+ (* (- 5.0) |v1:16|) (* ?x2073 |v13:4|)) (* 13.0 (rval2 |v6:11_st|))) ?x3148)))
 (let ((?x2682 (- 1.0)))
 (let ((?x2196 (* ?x2682 ?x223)))
 (let ((?x1574 (+ (+ (+ (* (- 11.0) |v14:3|) (* (- 11.0) |v2:15|)) ?x2196) (* (- 17.0) |v17:0|))))
 (let ((?x1606 (* 19.0 |v0:17|)))
 (let (($x3348 (<= (+ (+ (+ (* 17.0 |v5:12|) ?x2604) (* 10.0 (rval2 |v6:11_st|))) ?x1606) 3.0)))
 (let (($x188 (and (or (and $x3348 (<= ?x1574 0.0)) (or (<= ?x1865 ?x374) (<= ?x2840 ?x926))) $x1878)))
 (let ((?x3028 (+ (+ (* (- 7.0) (rval2 |v8:9_st|)) (* ?x2657 (rval2 |v6:11_st|))) (* (- 3.0) |v16:1|))))
 (let ((?x3070 (* 9.0 |v0:17|)))
 (let (($x3440 (<= (+ (+ (+ (* 16.0 |v1:16|) (* ?x1511 |v2:15|)) (* 18.0 |v5:12|)) ?x3070) ?x374)))
 (let ((?x895 (+ (+ (+ (* 6.0 |v16:1|) (* ?x1645 (rval2 |v8:9_st|))) (* 8.0 ?x223)) (* ?x1645 (rval2 |v10:7_st|)))))
 (let (($x2428 (<= (+ (+ (+ (* ?x926 |v12:5|) (* 6.0 |v15:2|)) |v12:5|) (* (- 11.0) |v14:3|)) 18.0)))
 (let (($x784 (or (and $x2428 (<= ?x895 0.0)) (and $x3440 (<= (+ ?x3028 (* ?x1455 (rval2 |v10:7_st|))) 9.0)))))
 (let ((?x1959 (- 17.0)))
 (let ((?x1344 (rval2 |v10:7_st|)))
 (let ((?x1256 (* 2.0 ?x1344)))
 (let ((?x2723 (+ (+ (+ (* (- 7.0) (rval2 |v9:8_st|)) (* ?x926 |v16:1|)) (* 5.0 |v13:4|)) ?x1256)))
 (let ((?x2542 (+ (+ (+ (* ?x926 |v16:1|) (* ?x1212 ?x1344)) (* 17.0 |v12:5|)) (* ?x2682 (rval2 |v6:11_st|)))))
 (let ((?x2980 (- 3.0)))
 (let ((?x3484 (rval2 |v9:8_st|)))
 (let (($x1259 (<= (+ (+ (+ |v2:15| (* (- 7.0) |v5:12|)) (* (- 16.0) |v13:4|)) ?x3484) ?x2980)))
 (let ((?x2834 (- 16.0)))
 (let ((?x3245 (+ (+ (+ (* ?x1212 ?x223) (* 16.0 |v4:13|)) (* 7.0 |v3:14|)) (* (- 11.0) ?x223))))
 (let (($x504 (and (and (or (<= ?x3245 ?x2834) $x1259) (or (<= ?x2542 8.0) (<= ?x2723 ?x1959))) $x784)))
 (let ((?x1225 (* 10.0 |v16:1|)))
 (let ((?x2741 (+ (+ (+ (* 15.0 ?x3484) (* 20.0 |v3:14|)) (* 17.0 (rval2 |v8:9_st|))) ?x1225)))
 (let ((?x2524 (* 3.0 |v16:1|)))
 (let (($x2237 (<= (+ (+ (+ (* ?x3434 |v16:1|) (* ?x3434 ?x3484)) (* (- 11.0) ?x1344)) ?x2524) ?x2682)))
 (let ((?x2590 (* 9.0 ?x182)))
 (let (($x2976 (<= (+ (+ (+ (* 7.0 |v2:15|) (* 5.0 |v3:14|)) (* 16.0 |v14:3|)) ?x2590) ?x2667)))
 (let ((?x3251 (* 16.0 |v1:16|)))
 (let (($x3389 (<= (+ (+ (+ (* 5.0 |v15:2|) (* ?x1426 |v13:4|)) (* ?x2834 ?x182)) ?x3251) 3.0)))
 (let ((?x1418 (* ?x3434 |v14:3|)))
 (let (($x1828 (<= (+ (+ (+ (* 7.0 ?x223) (* 6.0 |v2:15|)) (* 20.0 ?x3484)) ?x1418) 14.0)))
 (let ((?x808 (rval2 |v6:11_st|)))
 (let ((?x2512 (* 3.0 ?x808)))
 (let ((?x463 (+ (+ (+ (* ?x2682 |v16:1|) (* 10.0 |v2:15|)) (* 14.0 (rval2 |v8:9_st|))) ?x2512)))
 (let (($x208 (or (or (or (or (<= ?x463 ?x2667) $x1828) (or $x3389 $x2976)) $x2237) (<= ?x2741 ?x3434))))
 (let ((?x526 (+ (+ (+ (* 0.0 |v16:1|) (* 19.0 ?x808)) (* 13.0 |v17:0|)) (* ?x1283 |v14:3|))))
 (let ((?x1169 (* 14.0 ?x223)))
 (let (($x907 (<= (+ (+ (+ (* ?x2682 |v12:5|) (* 15.0 |v14:3|)) (* 9.0 |v2:15|)) ?x1169) 15.0)))
 (let ((?x1156 (* 16.0 |v17:0|)))
 (let (($x1499 (<= (+ (+ (+ (* ?x2682 |v0:17|) (* 18.0 ?x808)) (* 3.0 ?x182)) ?x1156) ?x1426)))
 (let ((?x3145 (+ (+ (+ (* (- 11.0) ?x808) (* ?x1959 |v0:17|)) (* 4.0 ?x1344)) (* ?x1645 |v14:3|))))
 (let ((?x772 (- 12.0)))
 (let ((?x3339 (+ (+ (+ (* 11.0 |v16:1|) (* ?x1212 |v12:5|)) (* ?x2682 |v5:12|)) (* (- 7.0) |v15:2|))))
 (let (($x729 (<= (+ (+ (+ (* ?x772 |v17:0|) (* ?x2667 ?x3484)) (* ?x1426 |v12:5|)) ?x1344) 11.0)))
 (let (($x3499 (<= (+ (+ (+ ?x3148 (* ?x1426 |v4:13|)) (* 7.0 |v5:12|)) (* 7.0 |v2:15|)) 2.0)))
 (let (($x2788 (or (and $x3499 $x729) (and (and (<= ?x3339 ?x772) (<= ?x3145 ?x1426)) (and $x1499 $x907)))))
 (let (($x163 (or (or (and $x2788 (<= ?x526 4.0)) $x208) (and (or $x504 $x188) (and (or $x1570 $x1052) $x200)))))
 (let (($x785 (not (= |v6:11_st| (RMk1 val!7751)))))
 (let (($x1017 (not (= |v7:10_st| (RMk1 val!7750)))))
 (let (($x2912 (not (= |v8:9_st| (RMk1 val!7749)))))
 (let (($x2702 (not (= |v9:8_st| (RMk1 val!7748)))))
 (let (($x1978 (not (= |v10:7_st| (RMk1 val!7747)))))
 (let (($x891 (not (= |v11:6_st| (RMk1 val!7746)))))
 (and $x891 $x1978 $x2702 $x2912 $x1017 $x785 $x163)))))))))))))))))))))))))))))))))))))))))))))))))))))))))))))))))))))))))))))))))))))))))))))))))))))))))))))))
 )
 )
 )
 )
 )
 )
 )
 )
 )
 )
 )
 )
 )
 )
 )
 )
 )
 )
(check-sat)
